p cnf 29 41
-25 3 12 0 
-11 14 0 
-10 29 0 
-28 12 0 
-18 7 0 
-2 23 0 
-8 21 0 
-11 26 0 
-12 25 0 
6 9 10 0 
-20 10 0 
-5 24 0 
-10 13 0 
-3 25 0 
-10 20 0 
-7 18 0 
-6 17 0 
-6 22 0 
-1 16 0 
-26 11 0 
-5 13 0 
-1 22 0 
-2 22 0 
-4 29 0 
-27 1 0 
-21 8 0 
-13 5 10 0 
-24 5 0 
-19 2 0 
-11 15 0 
-2 15 0 
-2 19 0 
-16 1 0 
-17 6 0 
-12 28 0 
-1 27 0 
-22 1 2 6 0 
-14 11 0 
-29 4 10 0 
-23 2 0 
-15 2 11 0 
